decision_x1=[0,2];
decision_x2=[0,2];
decision_x3=[0,2];
decision_x4=[0,2];
decision_x5=[0,2];
decision_x6=[0,2];
decision_x7=[0,2];
decision_x8=[0,2];
decision_x9=[0,2];
decision_x10=[0,2];
random_y1=[0,2];
random_y2=[0,2];
constraint_x2_x1=[
0,0,4.2|
0,1,3.4|
0,2,6.2|
1,0,0.34|
1,1,9|
1,2,1.5|
2,0,7.6|
2,1,1.6|
2,2,5.7|
];
constraint_x3_x1=[
0,0,0.17|
0,1,1.3|
0,2,2|
1,0,9.9|
1,1,0.97|
1,2,6|
2,0,0.57|
2,1,1.8|
2,2,7.3|
];
constraint_x3_x2=[
0,0,1.8|
0,1,3.6|
0,2,2.6|
1,0,7.8|
1,1,6.5|
1,2,0.12|
2,0,0.78|
2,1,7.1|
2,2,0.08|
];
constraint_x4_x3=[
0,0,3.1|
0,1,2.9|
0,2,6.9|
1,0,8.5|
1,1,8.1|
1,2,6|
2,0,3.5|
2,1,1.8|
2,2,6.5|
];
constraint_x5_x1=[
0,0,0.37|
0,1,8.3|
0,2,3|
1,0,3.7|
1,1,0.72|
1,2,6.2|
2,0,9.4|
2,1,4.5|
2,2,9.3|
];
constraint_x5_x4=[
0,0,9|
0,1,5|
0,2,1.3|
1,0,4.1|
1,1,7.3|
1,2,1.5|
2,0,7.2|
2,1,6.6|
2,2,0.28|
];
constraint_x6_x1=[
0,0,6.2|
0,1,8.4|
0,2,3.2|
1,0,8.6|
1,1,7.4|
1,2,7.1|
2,0,8|
2,1,8.2|
2,2,5.1|
];
constraint_x6_x4=[
0,0,3.3|
0,1,5.9|
0,2,2.3|
1,0,4.7|
1,1,4.9|
1,2,1.3|
2,0,7|
2,1,7|
2,2,8.4|
];
constraint_x6_x5=[
0,0,8.7|
0,1,9.5|
0,2,4.6|
1,0,0.92|
1,1,0.7|
1,2,5.6|
2,0,2.9|
2,1,2.6|
2,2,6.3|
];
constraint_x7_x2=[
0,0,1.1|
0,1,3.3|
0,2,1.6|
1,0,2.6|
1,1,1.4|
1,2,6.1|
2,0,9.8|
2,1,4.3|
2,2,9|
];
constraint_x7_x5=[
0,0,7.7|
0,1,3.5|
0,2,7.2|
1,0,7.3|
1,1,6.5|
1,2,8.7|
2,0,1.1|
2,1,6.5|
2,2,2.7|
];
constraint_x7_x6=[
0,0,7.1|
0,1,2.2|
0,2,7.1|
1,0,5.6|
1,1,0.55|
1,2,5.3|
2,0,9.5|
2,1,7.2|
2,2,1.5|
];
constraint_x8_x1=[
0,0,5.6|
0,1,1.9|
0,2,2.9|
1,0,2.5|
1,1,8.8|
1,2,7.9|
2,0,7.2|
2,1,1.4|
2,2,4|
];
constraint_x8_x2=[
0,0,4.3|
0,1,9.6|
0,2,1.5|
1,0,8.8|
1,1,4.8|
1,2,5|
2,0,2.2|
2,1,5.1|
2,2,7.9|
];
constraint_x8_x5=[
0,0,2.6|
0,1,2.7|
0,2,9.5|
1,0,0.7|
1,1,3.2|
1,2,8.4|
2,0,1.1|
2,1,5.7|
2,2,9.8|
];
constraint_x8_x7=[
0,0,6|
0,1,8.3|
0,2,1.2|
1,0,2.1|
1,1,0.73|
1,2,4.6|
2,0,0.23|
2,1,3.9|
2,2,9.1|
];
constraint_x9_x1=[
0,0,0.048|
0,1,3.3|
0,2,5.9|
1,0,7.6|
1,1,8.5|
1,2,5.3|
2,0,5.6|
2,1,4|
2,2,5.6|
];
constraint_x9_x4=[
0,0,0.013|
0,1,4.1|
0,2,3.7|
1,0,8.2|
1,1,5.5|
1,2,2.6|
2,0,4.8|
2,1,9.5|
2,2,3.5|
];
constraint_x9_x6=[
0,0,5.9|
0,1,5.5|
0,2,9.2|
1,0,1.5|
1,1,4.7|
1,2,0.43|
2,0,4.2|
2,1,3.5|
2,2,0.17|
];
constraint_x9_x8=[
0,0,7.5|
0,1,3.3|
0,2,7.8|
1,0,10|
1,1,0.7|
1,2,8.1|
2,0,5.2|
2,1,2.8|
2,2,6.9|
];
constraint_x10_x1=[
0,0,2.7|
0,1,0.79|
0,2,2.1|
1,0,5.5|
1,1,2.9|
1,2,1.7|
2,0,5.1|
2,1,9.9|
2,2,2.5|
];
constraint_x10_x4=[
0,0,6.9|
0,1,6.1|
0,2,1.6|
1,0,3.2|
1,1,0.37|
1,2,6.2|
2,0,5.4|
2,1,9|
2,2,5.1|
];
constraint_x10_x7=[
0,0,2|
0,1,4|
0,2,5.6|
1,0,4.9|
1,1,4.5|
1,2,3.4|
2,0,7.9|
2,1,8.8|
2,2,0.88|
];
constraint_x1_y1=[
0,0,9.9|
0,1,8.6|
0,2,8.4|
1,0,0.19|
1,1,4.5|
1,2,6.3|
2,0,3.3|
2,1,8.4|
2,2,2|
];
constraint_x2_y2=[
0,0,6.7|
0,1,8.7|
0,2,1.3|
1,0,3.8|
1,1,8|
1,2,4.2|
2,0,2.6|
2,1,5.5|
2,2,7.4|
];
initial_distribution_y1=[0.033,0.58,0.38];
initial_distribution_y2=[0.037,0.89,0.069];
transition_y1=[
0.41,0.075,0.52|
0.51,0.22,0.27|
0.59,0.08,0.33|
];
transition_y2=[
0.19,0.54,0.27|
0.3,0.23,0.48|
0.021,0.4,0.58|
];
